GeneratedTests/Random_12/Random_12_16.tsp
NAME: Random_12_16
TYPE: TSP
DIMENSION: 12
EDGE_WEIGHT_TYPE: EUC_2D
NODE_COORD_SECTION
1 26.917568 1.7942412
2 17.687925 20.20281
3 6.24473 18.017866
4 25.483982 9.535766
5 7.5314817 32.060562
6 13.18656 33.718204
7 4.5870323 29.632837
8 13.078949 33.604126
9 9.415836 31.190079
10 22.907835 16.262037
11 6.032481 4.0774746
12 33.347202 12.289337
EOF
