GeneratedTests/Random_12/Random_12_16.txt
NAME: Random_12_16
TYPE: TSP
DIMENSION: 12
EDGE_WEIGHT_TYPE: EUC_2D
NODE_COORD_SECTION
1 11.099444 29.748787
2 5.6681128 28.397804
3 26.751354 33.718666
4 15.282343 9.726469
5 17.315348 21.566435
6 6.720627 32.21864
7 17.24267 23.968021
8 16.474684 22.882132
9 2.4167519 5.7538147
10 26.712952 35.974293
11 1.3644826 1.9436595
12 19.247871 2.771179
EOF
